max_width = 15;
n_blocks = 25;
width = [7, 5, 5, 5, 4, 4, 4, 4, 4, 4, 4, 3, 3, 3, 2, 2, 2, 2, 2, 2, 2, 2, 1, 1, 1];
height = [10, 9, 5, 4, 26, 12, 11, 8, 8, 3, 2, 8, 2, 1, 11, 11, 10, 7, 6, 6, 3, 3, 6, 4, 3];
